ilp_joint/output/erosion_ilp.lp
Maximize
  0.020808869587581 Z_53_0_0 + 0.0440740447446006 Z_53_0_1
   + 0.1933358107381554 Z_53_0_2 + 0.0380119173015624 Z_53_0_3
   + 0.00777410110035246 Z_136_0_0 + 0.0314231555959652 Z_136_0_1
   + 0.6819630182045662 Z_136_0_2 + 0.0184060412730478 Z_136_0_3
   + 0.00187697045499347 Z_96_0_0 + 0.00926931323922493 Z_96_0_1
   + 0.8281315929524545 Z_96_0_2 + 0.0122194604055231 Z_96_0_3 + [
   0.4 Z_136_0_0 * Z_96_0_0 + 0.4 Z_136_0_1 * Z_96_0_1
   + 0.4 Z_136_0_2 * Z_96_0_2 + 0.4 Z_136_0_3 * Z_96_0_3 ] / 2 
Subject To
 constraint1_530: Z_53_0_0 + Z_53_0_1 + Z_53_0_2 + Z_53_0_3 <= 1
 constraint1_1360: Z_136_0_0 + Z_136_0_1 + Z_136_0_2 + Z_136_0_3 <= 1
 constraint1_960: Z_96_0_0 + Z_96_0_1 + Z_96_0_2 + Z_96_0_3 <= 1
 constraint2_530: Z_53_0_0 <= 1
 constraint2_531: Z_53_0_1 <= 1
 constraint2_532: Z_53_0_2 <= 1
 constraint2_533: Z_53_0_3 <= 1
 constraint2_1360: Z_136_0_0 <= 1
 constraint2_1361: Z_136_0_1 <= 1
 constraint2_1362: Z_136_0_2 <= 1
 constraint2_1363: Z_136_0_3 <= 1
 constraint2_960: Z_96_0_0 <= 1
 constraint2_961: Z_96_0_1 <= 1
 constraint2_962: Z_96_0_2 <= 1
 constraint2_963: Z_96_0_3 <= 1
Bounds
Binaries
 Z_53_0_0 Z_53_0_1 Z_53_0_2 Z_53_0_3 Z_136_0_0 Z_136_0_1 Z_136_0_2
 Z_136_0_3 Z_96_0_0 Z_96_0_1 Z_96_0_2 Z_96_0_3
End
