ilp_joint/output/erosion_ilp.sol
# Solution for model erosion_srl_ilp
# Objective value = 1.9034304218951761e+00
Z_53_0_0 0
Z_53_0_1 0
Z_53_0_2 1
Z_53_0_3 0
Z_136_0_0 0
Z_136_0_1 0
Z_136_0_2 1
Z_136_0_3 0
Z_96_0_0 0
Z_96_0_1 0
Z_96_0_2 1
Z_96_0_3 0
